
  32    4
  10   10   10   10

   0   0   0   0   0   1 2 
   6   1   0   1   1   1 3 
   8   5   1   6   0   1 4 
   3   3   0   2   5   1 5 
  10   2   5   2   0   1 6 
   5   3   5   0   2   1 7 
   9   5   2   0   4   2 10 8 
   1   2   0   3   8   2 12 9 
   2   4   4   8   0   1 11 
  10   1   2   0   4   1 11 
  10   3   0   4   1   2 14 13 
   7   0   6   2   7   2 14 13 
   1   4   5   0   6   2 17 15 
   2   5   5   0   6   1 15 
   5   2   0   5   4   1 16 
   1   4   5   5   0   1 18 
   5   4   0   3   5   1 18 
   1   8   3   3   0   2 21 19 
   7   4   0   2   6   1 20 
   2   0   5   8   5   1 22 
   1   0   4   4   5   1 22 
   1   4   3   0   3   1 23 
   8   4   3   0   4   1 24 
   4   6   0   2   1   2 26 25 
   5   7   0   4   3   1 27 
   7   7   0   4   2   1 27 
   8   0   3   2   5   1 28 
   3   2   7   0   2   1 29 
   4   6   4   7   0   1 30 
   6   4   0   8   4   1 31 
   7   0   4   3   3   1 32
   0   0   0   0   0   0 
